SystemName Ospin
SystemLabel Ospin

PAO.BasisSize DZP
PAO.EnergyShift 0.02 Ry

NumberOfSpecies 1
%block ChemicalSpeciesLabel
 1  8  O
%endblock ChemicalSpeciesLabel

LatticeConstant 1.0 Ang
%block LatticeVectors
 10.0  0.0  0.0
  0.0 10.0  0.0
  0.0  0.0 10.0
%endblock LatticeVectors

NumberOfAtoms 1
AtomicCoordinatesFormat Ang
%block AtomicCoordinatesAndAtomicSpecies
 5.0 5.0 5.0  1
%endblock AtomicCoordinatesAndAtomicSpecies

kgrid_Monkhorst_Pack [ 1 1 1 ]

MeshCutOff 150 Ry
MaxSCFIterations 200
XC.Functional GGA
XC.Authors PBE
Spin polarized
%block DM.InitSpin
 1  2.0
%endblock DM.InitSpin
SCF.Mixer.Weight 0.1
SCF.DM.Tolerance 1.0d-4 eV
ElectronicTemperature 25.0 meV
SaveHS .true.

WFS.Write.For.Bands T
BandLinesScale ReciprocalLatticeVectors
%block BandLines
1  0.0 0.0 0.0  GAMMA
5  0.5 0.0 0.0  X
%endblock BandLines
